<?xml version="1.0" encoding="UTF-8"?><osil xmlns="os.optimizationservices.org" xmlns:xsi="http://www.w3.org/2001/XMLSchema-instance" xsi:schemaLocation="os.optimizationservices.org http://www.optimizationservices.org/schemas/2.0/OSiL.xsd"><instanceHeader><name>cvxnonsep_psig20r</name></instanceHeader><instanceData><variables numberOfVariables="42"><var name="i1" type="I" lb="1" ub="10"/><var name="i2" type="I" lb="1" ub="10"/><var name="i3" type="I" lb="1" ub="10"/><var name="i4" type="I" lb="1" ub="10"/><var name="i5" type="I" lb="1" ub="10"/><var name="i6" type="I" lb="1" ub="10"/><var name="i7" type="I" lb="1" ub="10"/><var name="i8" type="I" lb="1" ub="10"/><var name="i9" type="I" lb="1" ub="10"/><var name="i10" type="I" lb="1" ub="10"/><var name="x11" lb="1" ub="10"/><var name="x12" lb="1" ub="10"/><var name="x13" lb="1" ub="10"/><var name="x14" lb="1" ub="10"/><var name="x15" lb="1" ub="10"/><var name="x16" lb="1" ub="10"/><var name="x17" lb="1" ub="10"/><var name="x18" lb="1" ub="10"/><var name="x19" lb="1" ub="10"/><var name="x20" lb="1" ub="10"/><var name="x21" lb="1e-8"/><var name="x22" lb="-INF" ub="0"/><var name="x23" lb="-INF" ub="0"/><var name="x24" lb="-INF" ub="0"/><var name="x25" lb="-INF" ub="0"/><var name="x26" lb="-INF" ub="0"/><var name="x27" lb="-INF" ub="0"/><var name="x28" lb="-INF" ub="0"/><var name="x29" lb="-INF" ub="0"/><var name="x30" lb="-INF" ub="0"/><var name="x31" lb="-INF" ub="0"/><var name="x32" lb="-INF" ub="0"/><var name="x33" lb="-INF" ub="0"/><var name="x34" lb="-INF" ub="0"/><var name="x35" lb="-INF" ub="0"/><var name="x36" lb="-INF" ub="0"/><var name="x37" lb="-INF" ub="0"/><var name="x38" lb="-INF" ub="0"/><var name="x39" lb="-INF" ub="0"/><var name="x40" lb="-INF" ub="0"/><var name="x41" lb="-INF" ub="0"/><var name="x42" lb="-INF"/></variables><objectives><obj maxOrMin="min" name="defObj_objvar" numberOfObjCoef="21"><coef idx="0">1</coef><coef idx="1">1</coef><coef idx="2">1</coef><coef idx="3">1</coef><coef idx="4">1</coef><coef idx="5">1</coef><coef idx="6">1</coef><coef idx="7">1</coef><coef idx="8">1</coef><coef idx="9">1</coef><coef idx="10">1</coef><coef idx="11">1</coef><coef idx="12">1</coef><coef idx="13">1</coef><coef idx="14">1</coef><coef idx="15">1</coef><coef idx="16">1</coef><coef idx="17">1</coef><coef idx="18">1</coef><coef idx="19">1</coef><coef idx="20">2e4</coef></obj></objectives><constraints numberOfConstraints="22"><con name="e2" ub="0"/><con name="e3" ub="0"/><con name="e4" ub="0"/><con name="e5" ub="0"/><con name="e6" ub="0"/><con name="e7" ub="0"/><con name="e8" ub="0"/><con name="e9" ub="0"/><con name="e10" ub="0"/><con name="e11" ub="0"/><con name="e12" ub="0"/><con name="e13" ub="0"/><con name="e14" ub="0"/><con name="e15" ub="0"/><con name="e16" ub="0"/><con name="e17" ub="0"/><con name="e18" ub="0"/><con name="e19" ub="0"/><con name="e20" ub="0"/><con name="e21" ub="0"/><con name="e22" ub="0"/><con name="e23" ub="0"/></constraints><linearConstraintCoefficients numberOfValues="42"><start><el>0</el><el mult="22" incr="1">21</el></start><colIdx><el mult="21" incr="1">21</el><el mult="21" incr="1">21</el></colIdx><value><el mult="21">1</el><el mult="21">-1</el></value></linearConstraintCoefficients><nonlinearExpressions numberOfNonlinearExpressions="21"><nl idx="1"><product><ln><variable idx="0"/></ln><number value="-.32"/></product></nl><nl idx="2"><product><ln><variable idx="1"/></ln><number value="-.19"/></product></nl><nl idx="3"><product><ln><variable idx="2"/></ln><number value="-.405"/></product></nl><nl idx="4"><product><ln><variable idx="3"/></ln><number value="-.265"/></product></nl><nl idx="5"><product><ln><variable idx="4"/></ln><number value="-.175"/></product></nl><nl idx="6"><product><ln><variable idx="5"/></ln><number value="-.44"/></product></nl><nl idx="7"><product><ln><variable idx="6"/></ln><number value="-.275"/></product></nl><nl idx="8"><product><ln><variable idx="7"/></ln><number value="-.47"/></product></nl><nl idx="9"><product><ln><variable idx="8"/></ln><number value="-.31"/></product></nl><nl idx="10"><product><ln><variable idx="9"/></ln><number value="-.295"/></product></nl><nl idx="11"><product><ln><variable idx="10"/></ln><number value="-.105"/></product></nl><nl idx="12"><product><ln><variable idx="11"/></ln><number value="-.15"/></product></nl><nl idx="13"><product><ln><variable idx="12"/></ln><number value="-.235"/></product></nl><nl idx="14"><product><ln><variable idx="13"/></ln><number value="-.115"/></product></nl><nl idx="15"><product><ln><variable idx="14"/></ln><number value="-.42"/></product></nl><nl idx="16"><product><ln><variable idx="15"/></ln><number value="-9.5e-2"/></product></nl><nl idx="17"><product><ln><variable idx="16"/></ln><number value="-.115"/></product></nl><nl idx="18"><product><ln><variable idx="17"/></ln><number value="-8.5e-2"/></product></nl><nl idx="19"><product><ln><variable idx="18"/></ln><number value="-.115"/></product></nl><nl idx="20"><product><ln><variable idx="19"/></ln><number value="-2.2e-2"/></product></nl><nl idx="21"><negate><ln><variable idx="20"/></ln></negate></nl></nonlinearExpressions></instanceData></osil>